
Gurobi 9.5.2 (mac64[arm]) logging started Mon Mar 20 20:42:00 2023

Set parameter LogFile to value "./ccga_results/2023-03-20 20-41-59-147/MSP_TimeStampConvert_gurobi_log.txt"

Gurobi 9.5.2 (mac64[arm]) logging started Mon Mar 20 20:42:00 2023

Set parameter LogFile to value "./ccga_results/2023-03-20 20-41-59-147/MSP_TimeStampConvert_gurobi_log.txt"
Set parameter TimeLimit to value 180
Gurobi Optimizer version 9.5.2 build v9.5.2rc0 (mac64[arm])
Thread count: 8 physical cores, 8 logical processors, using up to 8 threads
Optimize a model with 600 rows, 457 columns and 1482 nonzeros
Model fingerprint: 0x53034e27
Variable types: 25 continuous, 432 integer (432 binary)
Coefficient statistics:
  Matrix range     [1e+00, 1e+00]
  Objective range  [1e+00, 1e+00]
  Bounds range     [2e+02, 2e+02]
  RHS range        [1e+00, 1e+00]
Found heuristic solution: objective 4800.0000000

Explored 0 nodes (0 simplex iterations) in 0.00 seconds (0.00 work units)
Thread count was 1 (of 8 available processors)

Solution count 1: 4800 

Optimal solution found (tolerance 1.00e-03)
Best objective 4.800000000000e+03, best bound 4.800000000000e+03, gap 0.0000%

User-callback calls 21, time in user-callback 0.00 sec
Gurobi Optimizer version 9.5.2 build v9.5.2rc0 (mac64[arm])
Thread count: 8 physical cores, 8 logical processors, using up to 8 threads
Optimize a model with 2171 rows, 961 columns and 6441 nonzeros
Model fingerprint: 0x837d4872
Variable types: 481 continuous, 480 integer (480 binary)
Coefficient statistics:
  Matrix range     [1e-01, 8e+02]
  Objective range  [1e+00, 1e+00]
  Bounds range     [2e+02, 2e+02]
  RHS range        [1e+00, 1e+08]

MIP start from previous solve did not produce a new incumbent solution

Presolve removed 452 rows and 203 columns
Presolve time: 0.03s
Presolved: 1719 rows, 758 columns, 5451 nonzeros
Variable types: 338 continuous, 420 integer (420 binary)
Found heuristic solution: objective 3093.8083613
Found heuristic solution: objective 4297.8604854
Found heuristic solution: objective 4531.3941800

Root relaxation: objective 4.800000e+03, 222 iterations, 0.00 seconds (0.00 work units)

    Nodes    |    Current Node    |     Objective Bounds      |     Work
 Expl Unexpl |  Obj  Depth IntInf | Incumbent    BestBd   Gap | It/Node Time

*    0     0               0    4800.0000000 4800.00000  0.00%     -    0s

Explored 1 nodes (526 simplex iterations) in 0.06 seconds (0.05 work units)
Thread count was 8 (of 8 available processors)

Solution count 4: 4800 4531.39 4297.86 3093.81 

Optimal solution found (tolerance 1.00e-03)
Best objective 4.800000000000e+03, best bound 4.800000000000e+03, gap 0.0000%

User-callback calls 562, time in user-callback 0.00 sec
Gurobi Optimizer version 9.5.2 build v9.5.2rc0 (mac64[arm])
Thread count: 8 physical cores, 8 logical processors, using up to 8 threads
Optimize a model with 3742 rows, 1465 columns and 11400 nonzeros
Model fingerprint: 0xcfc97f30
Variable types: 937 continuous, 528 integer (528 binary)
Coefficient statistics:
  Matrix range     [1e-01, 8e+02]
  Objective range  [1e+00, 1e+00]
  Bounds range     [2e+02, 2e+02]
  RHS range        [1e+00, 1e+08]

MIP start from previous solve did not produce a new incumbent solution

Presolve removed 856 rows and 393 columns
Presolve time: 0.06s
Presolved: 2886 rows, 1072 columns, 9470 nonzeros
Variable types: 652 continuous, 420 integer (420 binary)
Found heuristic solution: objective 1016.4649138
Found heuristic solution: objective 2060.7746905
Found heuristic solution: objective 2553.6459322

Root relaxation: objective 4.388469e+03, 1076 iterations, 0.02 seconds (0.02 work units)

    Nodes    |    Current Node    |     Objective Bounds      |     Work
 Expl Unexpl |  Obj  Depth IntInf | Incumbent    BestBd   Gap | It/Node Time

     0     0 4388.46904    0   57 2553.64593 4388.46904  71.9%     -    0s
H    0     0                    2838.7665257 4388.46904  54.6%     -    0s
H    0     0                    2859.8382371 4388.46904  53.5%     -    0s
H    0     0                    3202.8032055 4388.46904  37.0%     -    0s
     0     0 4294.50627    0   63 3202.80321 4294.50627  34.1%     -    0s
H    0     0                    3411.9129936 4294.50627  25.9%     -    0s
     0     0 4288.32119    0   67 3411.91299 4288.32119  25.7%     -    0s
     0     0 4288.17846    0   77 3411.91299 4288.17846  25.7%     -    0s
     0     0 4288.17846    0   77 3411.91299 4288.17846  25.7%     -    0s
H    0     0                    3471.1618305 4288.17846  23.5%     -    0s
H    0     0                    3477.7041801 4288.17846  23.3%     -    0s
     0     0 4249.86077    0   92 3477.70418 4249.86077  22.2%     -    0s
     0     0 4234.89756    0  102 3477.70418 4234.89756  21.8%     -    0s
     0     0 4215.61495    0   96 3477.70418 4215.61495  21.2%     -    0s
     0     0 4197.66334    0   97 3477.70418 4197.66334  20.7%     -    0s
     0     0 4182.98470    0   92 3477.70418 4182.98470  20.3%     -    0s
     0     0 4175.88163    0   90 3477.70418 4175.88163  20.1%     -    0s
     0     0 4175.06438    0   92 3477.70418 4175.06438  20.1%     -    0s
     0     0 4175.00531    0   92 3477.70418 4175.00531  20.1%     -    0s
H    0     0                    3478.4328595 4175.00531  20.0%     -    0s
H    0     0                    3856.8299337 4175.00531  8.25%     -    0s
     0     0 4038.23061    0   75 3856.82993 4038.23061  4.70%     -    0s
     0     0 4010.40918    0   70 3856.82993 4010.40918  3.98%     -    0s
     0     0 4007.97242    0   73 3856.82993 4007.97242  3.92%     -    0s
     0     0 4007.97242    0   75 3856.82993 4007.97242  3.92%     -    0s
H    0     0                    3894.4897951 4007.97242  2.91%     -    0s
     0     0 3964.05713    0   49 3894.48980 3964.05713  1.79%     -    0s
     0     0 3958.14911    0   49 3894.48980 3958.14911  1.63%     -    0s
     0     0 3958.11026    0   42 3894.48980 3958.11026  1.63%     -    0s
H    0     0                    3894.7499492 3958.11026  1.63%     -    0s
     0     0 3953.01068    0   41 3894.74995 3953.01068  1.50%     -    0s
     0     0 3950.73590    0   57 3894.74995 3950.73590  1.44%     -    0s
     0     0 3950.44053    0   56 3894.74995 3950.44053  1.43%     -    0s
     0     0 3950.30004    0   56 3894.74995 3950.30004  1.43%     -    0s
     0     0 3929.85692    0   45 3894.74995 3929.85692  0.90%     -    0s
     0     0 3929.82567    0   44 3894.74995 3929.82567  0.90%     -    0s
H    0     0                    3894.7702172 3929.82567  0.90%     -    0s
     0     0 3928.88053    0   59 3894.77022 3928.88053  0.88%     -    0s
H    0     0                    3896.8035620 3928.88053  0.82%     -    0s
     0     0 3928.77876    0   50 3896.80356 3928.77876  0.82%     -    0s
     0     0 3928.77876    0   64 3896.80356 3928.77876  0.82%     -    0s
H    0     0                    3897.0092260 3928.77876  0.82%     -    0s
     0     0 3925.48344    0   40 3897.00923 3925.48344  0.73%     -    0s
     0     0 3924.89640    0   49 3897.00923 3924.89640  0.72%     -    0s
     0     0 3924.89640    0   49 3897.00923 3924.89640  0.72%     -    0s
     0     0 3924.88002    0   49 3897.00923 3924.88002  0.72%     -    0s
     0     0 3923.75120    0   39 3897.00923 3923.75120  0.69%     -    0s
     0     0 3923.75120    0   39 3897.00923 3923.75120  0.69%     -    0s
     0     0 3923.59273    0   46 3897.00923 3923.59273  0.68%     -    1s
     0     0 3923.54957    0   40 3897.00923 3923.54957  0.68%     -    1s
     0     0 3923.54733    0   53 3897.00923 3923.54733  0.68%     -    1s
     0     0 3922.83340    0   50 3897.00923 3922.83340  0.66%     -    1s
     0     0 3922.83340    0   50 3897.00923 3922.83340  0.66%     -    1s
     0     0 3922.81210    0   54 3897.00923 3922.81210  0.66%     -    1s
     0     0 3922.81210    0   38 3897.00923 3922.81210  0.66%     -    1s
     0     0 3922.81210    0   37 3897.00923 3922.81210  0.66%     -    1s
     0     0 3922.81210    0   57 3897.00923 3922.81210  0.66%     -    1s
     0     0 3922.81210    0   46 3897.00923 3922.81210  0.66%     -    1s
     0     0 3922.81210    0   52 3897.00923 3922.81210  0.66%     -    1s
     0     0 3922.81210    0   53 3897.00923 3922.81210  0.66%     -    1s
     0     0 3922.81210    0   37 3897.00923 3922.81210  0.66%     -    1s
     0     0 3922.81210    0   37 3897.00923 3922.81210  0.66%     -    1s
     0     0 3922.77496    0   31 3897.00923 3922.77496  0.66%     -    1s
     0     0 3922.77496    0   31 3897.00923 3922.77496  0.66%     -    1s
     0     0 3911.38727    0   22 3897.00923 3911.38727  0.37%     -    1s
     0     0 3910.66658    0   42 3897.00923 3910.66658  0.35%     -    1s
     0     0 3910.66658    0   47 3897.00923 3910.66658  0.35%     -    2s
     0     0 3910.53920    0   36 3897.00923 3910.53920  0.35%     -    2s
     0     0 3909.32446    0   20 3897.00923 3909.32446  0.32%     -    2s
     0     0 3909.32446    0   23 3897.00923 3909.32446  0.32%     -    2s
     0     0 3909.32446    0   29 3897.00923 3909.32446  0.32%     -    2s
H    0     0                    3899.1945653 3909.32446  0.26%     -    2s
     0     0 3909.32446    0   23 3899.19457 3909.32446  0.26%     -    2s
     0     0 3909.32446    0   26 3899.19457 3909.32446  0.26%     -    2s
     0     0 3909.32446    0    6 3899.19457 3909.32446  0.26%     -    2s
     0     0 3909.32446    0    6 3899.19457 3909.32446  0.26%     -    2s
     0     0 3909.32446    0   11 3899.19457 3909.32446  0.26%     -    2s
     0     0 3909.32446    0    9 3899.19457 3909.32446  0.26%     -    2s
     0     0 3909.32446    0   12 3899.19457 3909.32446  0.26%     -    2s
     0     0 3909.32446    0   11 3899.19457 3909.32446  0.26%     -    2s
     0     0 3909.32446    0   11 3899.19457 3909.32446  0.26%     -    2s
     0     2 3909.32446    0   11 3899.19457 3909.32446  0.26%     -    2s
*  608   476              25    3899.1945903 3909.15753  0.26%  11.5    3s
  2195  1384 3900.38300   44    2 3899.19459 3908.46538  0.24%  10.9    5s
 29438 16961 3907.87536   30   38 3899.19459 3908.22339  0.23%   7.3   11s
 44124 19747 3905.36877   40    3 3899.19459 3907.87536  0.22%   7.3   15s
 73244 20066 3905.36877   43    5 3899.19459 3907.77436  0.22%   7.3   20s
 109527 30152 3902.52822   54    3 3899.19459 3906.51484  0.19%   7.5   25s
H125789 31784                    3899.1945931 3906.36275  0.18%   7.5   27s
H129051 32023                    3899.1945966 3906.24439  0.18%   7.5   28s
 134567 33998     cutoff   44      3899.19460 3905.97162  0.17%   7.5   30s
 158316 41746     cutoff   53      3899.19460 3905.94707  0.17%   7.7   35s
 183318 49284     cutoff   50      3899.19460 3905.53826  0.16%   7.8   40s
 208841 54575     cutoff   53      3899.19460 3905.46909  0.16%   7.9   45s
 235231 56985 3903.09971   50    5 3899.19460 3905.36997  0.16%   8.0   50s
 258064 63116 3900.11247   45    6 3899.19460 3905.36877  0.16%   8.1   55s
 283672 68315 3901.14571   44    9 3899.19460 3905.26798  0.16%   8.2   60s
 309399 74189     cutoff   45      3899.19460 3905.24004  0.16%   8.3   65s
 332992 77772 3902.49344   44    6 3899.19460 3905.18865  0.15%   8.3   70s
 360044 80722 3902.62447   49    5 3899.19460 3905.13095  0.15%   8.4   75s
 384022 82236 3904.17360   50    6 3899.19460 3905.09714  0.15%   8.4   80s
 412130 84641     cutoff   48      3899.19460 3904.96254  0.15%   8.3   85s
 443446 88030 3901.28304   43    3 3899.19460 3904.44717  0.13%   8.3   90s
 472121 92552 3901.43047   53    6 3899.19460 3904.27732  0.13%   8.2   95s
 500668 96017 3902.62447   50    3 3899.19460 3904.06642  0.12%   8.1  100s
 527288 99311     cutoff   52      3899.19460 3903.94575  0.12%   8.1  105s
 556020 103369     cutoff   48      3899.19460 3903.87899  0.12%   8.1  110s
 582787 101426     cutoff   49      3899.19460 3903.81032  0.12%   8.0  115s
 607839 101528 3901.44502   42    6 3899.19460 3903.77887  0.12%   8.0  120s
 632590 105551     cutoff   50      3899.19460 3903.75689  0.12%   7.9  125s
 659926 107024     cutoff   49      3899.19460 3903.71379  0.12%   7.9  130s
 688713 109036     cutoff   46      3899.19460 3903.56733  0.11%   7.9  135s
 719679 111559 3903.06339   45    3 3899.19460 3903.53086  0.11%   7.8  140s
 750563 110808     cutoff   50      3899.19460 3903.38231  0.11%   7.8  145s
 778918 111421 3902.89163   56    5 3899.19460 3903.35834  0.11%   7.8  150s
 805976 108390     cutoff   51      3899.19460 3903.26450  0.10%   7.8  155s
 833131 106586     cutoff   48      3899.19460 3903.13434  0.10%   7.9  160s

Cutting planes:
  Gomory: 7
  Cover: 46
  Implied bound: 7
  Projected implied bound: 2
  MIR: 44
  StrongCG: 1
  Flow cover: 67
  Relax-and-lift: 4

Explored 856416 nodes (6792356 simplex iterations) in 164.74 seconds (87.34 work units)
Thread count was 8 (of 8 available processors)

Solution count 10: 3899.19 3899.19 3899.19 ... 3856.83

Optimal solution found (tolerance 1.00e-03)
Best objective 3.899194565257e+03, best bound 3.903089871707e+03, gap 0.0999%

User-callback calls 1741585, time in user-callback 0.60 sec
Gurobi Optimizer version 9.5.2 build v9.5.2rc0 (mac64[arm])
Thread count: 8 physical cores, 8 logical processors, using up to 8 threads
Optimize a model with 5313 rows, 1969 columns and 16359 nonzeros
Model fingerprint: 0xd1e11ea8
Variable types: 1393 continuous, 576 integer (576 binary)
Coefficient statistics:
  Matrix range     [1e-01, 8e+02]
  Objective range  [1e+00, 1e+00]
  Bounds range     [2e+02, 2e+02]
  RHS range        [1e+00, 1e+08]

MIP start from previous solve did not produce a new incumbent solution

Presolve removed 1260 rows and 583 columns
Presolve time: 0.06s
Presolved: 4053 rows, 1386 columns, 13494 nonzeros
Variable types: 966 continuous, 420 integer (420 binary)
Found heuristic solution: objective 666.7468443
Found heuristic solution: objective 1682.8070796

Root relaxation: objective 3.607990e+03, 1576 iterations, 0.03 seconds (0.03 work units)

    Nodes    |    Current Node    |     Objective Bounds      |     Work
 Expl Unexpl |  Obj  Depth IntInf | Incumbent    BestBd   Gap | It/Node Time

     0     0 3607.98959    0   70 1682.80708 3607.98959   114%     -    0s
H    0     0                    2391.1886102 3607.98959  50.9%     -    0s
H    0     0                    2421.7402115 3607.98959  49.0%     -    0s
     0     0 3522.56346    0  105 2421.74021 3522.56346  45.5%     -    0s
H    0     0                    2925.1769967 3522.56346  20.4%     -    0s
     0     0 3505.39997    0  101 2925.17700 3505.39997  19.8%     -    0s
     0     0 3498.17221    0   97 2925.17700 3498.17221  19.6%     -    0s
     0     0 3494.79529    0   96 2925.17700 3494.79529  19.5%     -    0s
     0     0 3470.52862    0  138 2925.17700 3470.52862  18.6%     -    0s
     0     0 3431.38969    0  148 2925.17700 3431.38969  17.3%     -    0s
     0     0 3396.55679    0  155 2925.17700 3396.55679  16.1%     -    0s
     0     0 3389.97532    0  157 2925.17700 3389.97532  15.9%     -    0s
     0     0 3386.92422    0  154 2925.17700 3386.92422  15.8%     -    0s
     0     0 3383.65969    0  153 2925.17700 3383.65969  15.7%     -    0s
     0     0 3383.65969    0  153 2925.17700 3383.65969  15.7%     -    0s
H    0     0                    3100.2628206 3383.65969  9.14%     -    0s
     0     0 3278.18660    0  143 3100.26282 3278.18660  5.74%     -    0s
H    0     0                    3118.8781285 3220.41858  3.26%     -    0s
H    0     0                    3124.7820150 3220.41858  3.06%     -    0s
     0     0 3220.41858    0  116 3124.78202 3220.41858  3.06%     -    0s
     0     0 3206.98103    0  118 3124.78202 3206.98103  2.63%     -    0s
     0     0 3206.95987    0  118 3124.78202 3206.95987  2.63%     -    0s
     0     0 3199.77020    0  126 3124.78202 3199.77020  2.40%     -    0s
     0     0 3196.35473    0  120 3124.78202 3196.35473  2.29%     -    0s
     0     0 3195.49557    0  119 3124.78202 3195.49557  2.26%     -    0s
     0     0 3193.98031    0  116 3124.78202 3193.98031  2.21%     -    0s
     0     0 3193.86394    0  119 3124.78202 3193.86394  2.21%     -    0s
     0     0 3191.24856    0  129 3124.78202 3191.24856  2.13%     -    0s
     0     0 3189.97068    0  129 3124.78202 3189.97068  2.09%     -    0s
     0     0 3186.35633    0  130 3124.78202 3186.35633  1.97%     -    0s
     0     0 3186.35633    0  130 3124.78202 3186.35633  1.97%     -    0s
     0     0 3181.86958    0  116 3124.78202 3181.86958  1.83%     -    1s
     0     0 3181.81317    0  102 3124.78202 3181.81317  1.83%     -    1s
     0     0 3181.37213    0   94 3124.78202 3181.37213  1.81%     -    1s
     0     0 3180.07953    0   95 3124.78202 3180.07953  1.77%     -    1s
     0     0 3179.19029    0   91 3124.78202 3179.19029  1.74%     -    1s
     0     0 3178.48990    0   86 3124.78202 3178.48990  1.72%     -    1s
     0     0 3178.45191    0   98 3124.78202 3178.45191  1.72%     -    1s
     0     0 3172.97956    0   73 3124.78202 3172.97956  1.54%     -    1s
     0     0 3172.97956    0   69 3124.78202 3172.97956  1.54%     -    1s
     0     0 3172.49670    0   56 3124.78202 3172.49670  1.53%     -    1s
     0     0 3172.49670    0   51 3124.78202 3172.49670  1.53%     -    1s
     0     0 3167.89122    0   58 3124.78202 3167.89122  1.38%     -    1s
     0     0 3167.89122    0   64 3124.78202 3167.89122  1.38%     -    1s
     0     0 3167.01555    0   68 3124.78202 3167.01555  1.35%     -    1s
     0     0 3167.01555    0   76 3124.78202 3167.01555  1.35%     -    1s
     0     0 3166.77015    0   75 3124.78202 3166.77015  1.34%     -    1s
     0     0 3166.77015    0   33 3124.78202 3166.77015  1.34%     -    1s
     0     2 3166.77015    0   33 3124.78202 3166.77015  1.34%     -    1s
*  189   184              27    3124.7820384 3153.63898  0.92%  17.2    1s
H 1356   783                    3132.9126590 3148.07612  0.48%  18.4    3s
  1551   896 3144.48006   21   15 3132.91266 3147.94177  0.48%  18.0    5s
* 1933   966              53    3132.9126823 3147.94177  0.48%  20.4    6s
  8469  4770     cutoff   30      3132.91268 3146.79049  0.44%  17.5   10s
 16627  9422 3133.25618   55   12 3132.91268 3146.72598  0.44%  16.9   15s
 40341 14633 3145.83903   44    3 3132.91268 3146.57765  0.44%  12.5   20s
 45307 16647 3136.47742   46    9 3132.91268 3146.57765  0.44%  12.2   25s
 61572 19843 3133.16235   71    8 3132.91268 3146.57765  0.44%  11.6   30s
 86236 23685 3134.51244   70    3 3132.91268 3146.57765  0.44%  11.4   35s
 111649 32171 3133.05806   70   10 3132.91268 3146.57765  0.44%  11.4   40s
 139191 43619     cutoff   75      3132.91268 3146.39633  0.43%  11.5   45s
 163471 53036 3145.85076   57    7 3132.91268 3146.13809  0.42%  11.6   50s
 185582 63066 3143.46983   67   17 3132.91268 3146.13809  0.42%  11.6   55s
 207446 71457 3144.10934   65    5 3132.91268 3146.13809  0.42%  11.7   60s
 229506 81075 3143.58859   72    8 3132.91268 3146.13809  0.42%  11.7   65s
 251394 90003 3145.85076   57    5 3132.91268 3146.13809  0.42%  11.7   70s
 275981 98332 3143.58859   61    8 3132.91268 3146.13809  0.42%  11.7   75s
 299530 107377 3134.01937   67    3 3132.91268 3146.13809  0.42%  11.6   80s
 326017 115987 3143.45954   56    8 3132.91268 3146.01914  0.42%  11.6   85s
 350985 124675 3143.58859   62    6 3132.91268 3145.87731  0.41%  11.5   90s
 371492 130988 3143.58859   62    6 3132.91268 3145.86454  0.41%  11.5   95s
 391646 137356 3144.38281   67   11 3132.91268 3145.85077  0.41%  11.6  100s
 413160 142739 3134.15038   75    3 3132.91268 3145.85076  0.41%  11.6  105s
 438378 148597 3144.10934   65    5 3132.91268 3145.85076  0.41%  11.6  110s
 458532 155009 3136.94446   65    8 3132.91268 3145.85076  0.41%  11.6  115s
